Features/ForMiniZinc/benchmark_puzzles/benchmarks9x9/80/puzzle18.dzn
S = 9;
start = [|0,0,0,0,0,0,0,1,0,0,0,0,0,0,0,0,39,0,0,0,24,0,0,73,0,0,0,0,0,0,0,0,0,0,0,0,0,0,0,0,0,77,3,0,0,0,0,0,0,0,0,0,52,30,0,68,0,0,0,0,0,0,0,0,0,9,65,69,0,0,0,10,2,0,81,0,0,0,0,0,15|
0,0,0,0,0,0,0,0,0,56,60,0,65,0,0,45,0,0,51,0,0,0,0,0,0,0,0,0,0,0,50,0,0,0,57,0,0,0,0,0,0,0,0,0,0,0,0,0,0,0,3,11,5,0,0,0,0,4,0,0,0,0,0,76,0,0,0,0,0,0,63,0,0,0,0,0,0,0,13,19,0|
5,0,0,11,0,41,0,0,0,0,7,74,0,0,58,22,0,0,0,48,0,0,0,0,0,0,0,51,0,0,0,0,0,0,0,0,0,78,57,0,0,0,0,60,0,0,0,0,17,0,0,0,46,0,0,0,0,0,71,0,44,0,0,0,0,55,0,31,0,0,0,15,0,0,21,0,0,0,0,0,0|
0,0,0,0,0,0,0,0,0,0,0,51,0,0,0,0,0,0,19,0,4,2,6,67,0,0,0,0,0,0,44,0,0,0,0,0,0,0,0,0,0,42,0,28,0,59,0,0,0,66,0,0,0,0,0,0,0,0,0,0,0,0,0,0,0,0,0,0,0,0,53,0,0,0,0,0,0,0,0,0,0|
0,0,0,0,0,0,0,0,0,0,0,69,0,0,78,0,0,0,0,0,0,0,0,0,33,0,55,0,0,0,22,4,0,0,0,0,0,0,0,0,0,0,41,0,0,7,34,0,0,0,0,0,57,0,21,60,0,0,0,0,0,0,0,0,0,0,47,36,0,68,0,0,0,46,8,0,14,80,0,76,0|
0,0,0,0,0,0,69,61,0,0,55,0,0,0,12,0,71,2,0,14,56,0,0,77,0,15,0,0,0,0,3,34,38,0,0,0,65,0,24,0,0,58,0,0,0,0,36,0,0,73,13,40,0,0,47,0,8,0,0,0,0,0,0,0,0,29,0,0,0,0,0,0,0,0,0,0,0,0,0,0,0|
0,0,0,0,0,0,0,62,0,0,0,0,41,0,0,47,0,0,0,0,0,0,0,0,0,7,0,0,0,0,0,0,0,0,0,18,0,0,0,0,0,40,0,0,0,0,0,0,16,0,0,0,2,0,22,5,0,0,0,0,0,55,0,0,0,0,6,0,0,0,0,0,0,0,0,0,0,0,0,0,0|
0,0,0,57,0,0,0,0,0,0,0,0,0,0,0,0,0,0,0,0,0,65,0,0,0,0,59,0,46,66,0,0,0,0,0,0,0,0,0,0,0,0,0,0,0,76,0,0,0,0,0,0,0,0,0,0,28,0,0,74,0,0,0,62,0,0,0,0,0,0,0,0,30,50,0,0,31,71,0,0,0|
60,0,0,0,0,0,0,0,0,0,0,0,0,0,0,0,0,0,0,22,37,9,0,10,0,30,0,0,0,0,0,0,0,6,0,0,0,0,0,0,74,0,47,0,0,0,0,0,0,0,0,0,0,0,0,0,79,0,0,0,65,0,56,0,0,0,0,0,0,0,0,0,0,0,0,0,0,77,0,0,0|
18,0,0,80,0,43,67,0,0,0,0,31,0,0,0,15,0,0,0,0,0,0,0,0,0,0,0,0,0,0,0,0,0,0,0,56,0,0,0,0,0,0,0,0,0,63,0,0,0,0,71,0,0,0,65,36,46,55,0,0,24,0,0,0,0,32,0,0,14,17,27,0,0,0,60,0,0,0,0,0,0|
0,0,0,0,0,0,0,0,0,39,30,0,0,0,0,0,0,0,0,68,0,0,0,0,0,0,61,49,0,37,19,0,0,0,0,0,0,18,0,65,29,0,0,0,0,0,27,0,15,0,0,0,0,0,57,0,0,0,0,0,0,0,51,0,26,0,46,0,0,0,0,0,0,0,0,8,0,0,0,0,0|
0,0,0,66,0,0,0,0,0,0,42,0,0,0,0,20,0,0,56,0,0,63,43,0,0,0,0,0,0,5,0,0,0,0,0,0,0,0,0,0,45,0,0,0,27,0,0,0,0,0,53,0,0,0,0,0,0,75,0,0,62,74,0,0,81,0,0,0,0,0,0,0,0,0,28,0,0,0,0,0,0|
0,0,0,0,0,0,0,0,0,0,25,0,0,0,0,0,23,57,0,78,0,0,0,0,0,0,0,0,0,0,0,2,0,33,0,0,0,21,0,62,0,0,0,0,0,0,0,0,0,0,0,0,0,0,19,0,0,0,81,0,0,80,0,1,0,63,0,79,58,0,7,0,0,0,0,0,0,15,0,0,0|
0,69,59,0,68,0,0,0,26,0,0,18,0,0,0,70,0,0,0,0,0,58,0,0,0,0,0,0,0,0,0,0,0,0,0,0,0,0,0,0,0,0,71,0,1,0,0,80,0,23,0,0,0,61,0,0,0,0,0,0,5,28,0,0,0,0,0,0,0,0,0,0,0,0,0,73,0,29,2,0,22|
0,0,0,0,17,42,6,0,0,0,0,0,0,0,0,0,0,0,0,0,0,0,0,0,0,0,0,0,0,0,0,0,0,22,0,0,47,0,0,0,0,0,0,63,0,0,0,0,0,0,0,79,0,0,0,0,0,0,0,0,0,0,0,0,0,0,0,0,0,0,0,0,80,0,0,0,0,66,0,0,0|
0,0,0,49,0,0,28,0,0,0,0,0,0,0,17,0,0,7,0,0,0,5,0,0,0,0,0,0,0,72,0,0,0,0,0,0,0,0,0,0,0,43,0,0,0,0,0,41,0,59,0,0,11,0,68,0,0,0,0,76,20,0,0,0,0,0,0,0,23,0,50,0,0,0,0,45,0,6,0,0,0|
2,0,0,0,0,0,33,0,0,0,0,0,0,0,27,0,0,0,0,0,54,8,0,0,0,0,0,0,0,48,0,0,0,0,0,0,0,0,0,0,0,0,15,0,0,35,57,0,45,0,29,43,0,0,0,0,0,0,0,0,0,0,0,10,3,0,0,0,0,28,0,0,0,0,0,74,0,0,0,0,0|
0,0,0,0,0,0,0,0,0,0,0,0,0,0,0,0,0,0,0,0,0,0,12,0,0,50,0,0,0,0,0,0,0,0,0,0,26,0,0,66,0,0,0,0,24,0,14,0,0,0,0,0,37,0,0,0,0,0,0,0,0,0,0,0,0,67,0,0,0,0,0,0,0,0,0,0,0,0,0,0,0|
0,0,0,0,22,0,0,0,27,0,0,0,0,13,0,0,0,0,0,0,31,0,0,0,0,0,0,0,0,0,23,0,0,0,0,0,0,0,0,41,52,0,0,0,0,0,0,15,0,0,0,0,0,0,73,35,40,0,0,0,0,0,0,0,0,0,0,81,0,0,0,0,0,0,0,44,0,0,55,0,0|
0,0,0,0,0,0,0,0,38,0,0,0,0,0,0,0,0,0,0,0,0,34,0,0,0,0,0,48,9,0,0,0,35,0,0,0,0,0,51,0,16,0,0,0,0,20,0,0,0,0,0,0,0,62,0,24,4,0,37,13,0,66,0,0,0,1,0,0,0,0,18,0,0,0,53,0,0,0,0,0,0|
0,0,0,0,40,0,46,0,0,0,0,0,0,0,0,38,0,0,0,0,0,0,0,0,41,0,0,0,0,0,5,0,0,0,0,0,0,0,0,0,0,0,0,0,0,0,0,0,80,0,0,0,0,0,0,0,0,60,0,0,0,0,0,0,73,0,3,50,0,0,0,0,0,0,0,0,13,0,0,0,0|
0,0,17,0,53,0,0,66,0,0,0,0,0,0,0,63,64,0,0,0,0,0,0,39,0,0,0,0,0,0,0,28,21,8,0,80,0,0,0,0,0,0,33,0,0,0,0,9,0,0,0,0,0,0,0,0,2,0,0,0,0,0,0,0,0,0,0,0,32,19,0,0,61,0,0,40,0,0,76,0,46|
0,0,0,0,0,0,0,0,0,0,0,66,0,0,0,0,0,0,0,0,0,0,0,0,0,0,0,0,0,0,0,0,0,31,15,29,0,0,0,0,0,0,0,0,0,0,72,0,0,0,0,55,0,0,0,0,0,81,0,0,0,0,0,0,0,0,0,0,0,0,76,0,0,36,0,17,64,0,0,0,0|
0,0,0,0,0,0,0,0,0,0,68,59,0,0,0,0,20,32,0,0,66,0,25,0,0,0,0,0,0,0,0,0,0,0,0,0,0,0,0,24,0,0,5,0,0,0,0,0,0,0,0,1,0,60,0,0,0,0,67,0,0,0,0,0,57,64,0,0,0,79,0,0,62,0,38,0,0,0,21,0,0|
19,0,0,0,43,0,0,0,0,0,0,0,0,0,0,0,0,0,0,0,0,0,0,0,0,0,0,0,0,50,0,0,0,0,0,0,0,0,0,0,0,0,1,0,0,0,53,0,0,47,18,24,0,0,0,0,0,63,61,0,68,0,0,0,0,0,0,0,26,0,0,0,0,0,0,29,12,0,0,0,0|
0,0,28,0,0,0,0,0,0,0,0,0,10,73,0,0,67,0,0,0,0,0,18,68,0,2,74,0,0,0,0,0,0,0,39,0,0,0,0,0,38,54,0,12,0,0,0,0,63,0,78,0,0,0,0,0,0,0,0,0,0,0,0,0,0,0,0,0,0,0,0,0,0,43,0,0,0,0,0,0,0|
0,76,0,0,0,0,0,0,5,0,2,60,0,0,0,0,0,0,0,0,0,0,15,0,56,0,23,0,81,0,0,0,0,0,78,0,0,39,0,0,0,0,0,0,0,79,0,0,0,0,0,0,0,0,14,41,0,0,0,0,52,19,0,0,0,0,0,0,62,0,37,0,0,0,57,0,0,0,0,0,0|
0,0,0,35,0,0,0,45,4,0,17,52,0,5,47,0,0,0,0,0,0,0,39,0,0,0,33,0,0,0,0,80,0,78,0,0,0,0,0,0,0,0,0,0,0,0,0,0,43,0,0,0,0,0,0,0,0,12,0,0,0,0,0,72,0,31,0,0,0,0,73,0,58,0,0,0,0,0,0,0,2|
0,0,0,0,0,0,10,0,0,0,0,0,0,0,0,0,0,0,0,0,0,0,0,0,0,81,0,0,0,56,59,0,70,0,0,65,0,0,73,0,0,0,0,0,0,0,0,0,0,0,0,0,0,16,43,13,22,64,2,0,40,3,0,0,0,60,0,0,0,0,0,0,35,0,0,0,0,0,0,0,12|
0,0,0,0,0,48,0,0,20,0,44,0,0,0,0,0,0,0,0,37,0,45,52,0,30,0,0,0,11,16,0,0,0,0,0,0,0,0,0,0,0,0,64,0,0,0,0,0,0,0,66,0,59,78,0,0,0,0,0,0,0,0,0,0,0,0,0,0,0,70,0,0,13,0,0,0,32,0,0,0,0|
0,0,0,0,0,0,56,73,0,0,0,0,0,0,0,0,13,0,0,0,0,0,0,0,0,0,42,30,0,0,0,41,0,58,0,0,0,0,0,0,0,0,0,20,44,0,0,0,0,36,0,0,0,0,0,0,0,0,0,46,0,70,65,0,0,0,0,54,81,0,0,0,0,17,0,0,0,55,0,6,0|
0,0,0,37,0,8,0,78,0,0,51,29,0,0,0,0,0,0,0,0,0,25,0,2,0,0,0,0,0,0,75,0,54,0,0,0,0,0,14,0,0,19,0,0,0,0,0,0,0,32,0,0,23,0,0,0,63,0,0,0,0,0,0,0,0,0,0,45,0,0,0,0,0,0,15,0,0,0,0,0,0|
74,13,0,0,0,0,0,0,0,60,0,0,0,0,0,0,0,0,0,0,0,0,0,0,0,0,0,0,12,73,0,0,0,0,0,0,0,0,76,0,0,0,0,0,0,0,0,0,0,0,0,48,55,0,37,0,0,0,23,0,0,32,0,0,0,0,0,0,0,0,0,43,0,0,0,34,0,0,0,30,31|
0,0,0,79,0,67,0,43,0,0,0,0,0,0,0,58,0,0,0,53,0,0,0,0,8,0,0,0,0,0,0,0,0,13,0,0,78,0,0,0,0,0,0,0,6,31,0,0,0,0,0,51,0,49,66,42,0,0,0,0,39,0,0,19,0,0,0,0,0,33,17,65,0,0,0,0,0,0,0,0,0|
0,0,0,58,0,0,0,0,0,0,0,0,0,0,0,0,0,30,0,0,57,0,50,0,0,0,0,0,0,0,0,0,0,0,0,35,0,0,0,0,0,51,0,0,0,73,0,7,69,0,0,0,19,0,0,0,0,78,62,0,0,0,49,0,0,0,0,0,0,0,0,0,0,22,0,72,0,0,0,0,0|
0,0,0,0,0,0,2,33,14,0,0,0,37,65,0,0,0,0,0,0,0,0,0,0,0,0,0,0,0,0,0,0,0,3,0,0,24,0,0,13,0,0,0,0,0,10,5,0,0,0,67,0,0,0,0,0,0,0,0,0,41,0,0,0,0,0,0,0,0,76,69,64,0,0,0,0,0,0,0,46,0|
0,0,0,0,0,0,53,0,0,0,18,0,0,0,0,0,25,0,59,0,0,19,0,0,0,0,0,8,0,0,0,13,0,0,0,0,0,0,0,0,0,0,0,0,0,0,0,68,47,0,0,0,0,0,0,0,77,0,0,0,0,69,0,0,0,0,0,0,0,57,0,0,0,0,31,0,0,0,0,0,0|
0,5,68,0,0,0,0,0,0,0,27,0,0,0,0,0,0,0,0,0,63,52,0,0,0,76,0,0,0,26,0,0,0,0,0,0,9,0,0,0,0,0,0,0,0,0,0,0,0,62,55,0,0,0,0,0,45,0,0,0,80,0,0,0,0,18,0,0,0,58,66,16,0,0,0,0,0,0,0,0,0|
35,0,0,0,0,81,0,0,0,0,0,0,0,9,0,0,0,0,23,0,36,56,0,72,0,0,0,0,0,0,0,0,0,0,0,0,38,0,0,0,0,17,0,48,63,0,0,0,0,0,0,0,0,0,0,0,0,76,0,0,0,0,0,0,0,39,0,0,0,0,0,12,0,0,0,0,0,25,0,0,0|
0,0,0,0,0,0,0,0,0,0,0,0,0,0,0,0,0,0,0,0,0,0,55,78,0,0,0,0,61,0,0,0,16,7,0,0,0,52,0,0,0,0,57,0,0,0,0,0,0,1,0,0,0,0,0,47,0,0,0,0,0,0,0,0,0,74,43,38,0,0,0,0,59,0,0,0,0,0,0,0,0|
0,18,0,0,0,9,0,0,0,0,0,0,0,48,57,0,0,3,0,0,73,0,0,0,0,0,0,0,5,0,0,0,0,0,0,66,0,0,0,72,0,10,0,61,23,0,0,0,0,0,7,0,0,75,0,44,0,0,0,0,58,52,0,0,0,0,0,71,59,30,0,0,12,0,0,0,0,0,0,0,69|
0,66,0,0,0,0,0,0,0,0,0,0,0,0,0,0,0,0,0,80,0,0,8,0,0,0,0,15,44,6,0,0,57,62,0,55,3,32,0,0,0,0,0,0,0,0,0,0,0,17,0,35,0,77,0,19,0,0,0,0,0,0,0,0,0,50,0,47,76,0,0,41,63,0,0,48,0,0,0,0,0|
0,0,0,0,0,0,0,0,0,0,0,55,0,44,0,0,0,0,74,0,0,0,0,34,43,0,0,0,0,31,0,0,80,0,0,0,0,0,0,12,0,24,6,11,0,45,8,0,72,2,0,0,0,0,0,0,0,0,0,65,0,0,0,0,0,17,0,0,0,0,0,0,77,0,0,0,0,0,0,0,30|
0,0,0,0,0,0,0,0,0,0,0,0,22,0,0,77,0,0,0,0,0,0,0,0,0,66,0,0,0,0,0,75,0,0,0,0,0,0,0,0,0,0,0,0,0,0,0,0,0,0,0,36,0,21,0,0,0,0,0,70,0,0,32,0,0,8,0,34,0,0,0,73,0,0,0,13,40,0,0,0,0|
0,0,0,16,0,0,0,0,76,0,15,0,0,56,0,0,0,0,0,0,0,0,0,0,0,0,35,0,0,1,67,0,0,0,0,0,18,0,0,0,0,0,0,40,0,0,0,34,0,0,0,0,0,0,0,0,0,0,0,0,0,81,41,0,0,0,0,72,0,63,0,0,0,0,0,0,43,0,0,0,54|
16,0,0,0,0,0,0,0,18,0,0,0,0,0,0,0,80,0,0,76,0,51,0,0,0,0,0,0,37,0,52,0,0,0,28,0,77,0,0,0,0,0,0,0,0,0,25,0,55,0,0,47,0,0,0,0,0,3,0,0,0,0,72,6,13,0,0,0,68,0,0,0,0,21,34,0,0,0,0,35,0|
0,0,63,0,0,0,0,0,0,0,0,3,0,0,0,53,60,0,46,0,0,0,0,0,18,0,0,0,0,0,49,0,0,4,0,0,0,47,0,0,0,0,0,68,0,65,64,0,0,0,0,75,1,0,0,0,0,15,0,7,0,0,44,0,0,0,0,0,0,0,10,0,0,0,0,0,0,0,52,0,0|
0,0,30,0,36,0,0,6,61,0,0,0,0,0,0,0,0,0,0,0,0,0,0,22,0,62,0,0,39,0,0,0,0,0,0,0,13,69,64,81,0,0,0,0,0,0,0,0,0,0,12,0,0,0,0,0,0,46,0,42,0,0,0,52,0,0,14,0,0,59,0,0,19,0,0,0,0,0,0,0,0|
79,0,0,0,0,0,0,0,0,0,73,64,0,32,0,0,18,59,0,0,0,0,0,0,29,9,34,0,53,0,71,61,0,0,1,0,0,0,31,0,0,15,30,35,0,0,0,0,0,43,0,0,0,76,0,0,0,0,0,0,0,0,0,0,17,0,0,0,0,50,0,78,0,0,0,0,0,0,0,75,0|
0,0,0,0,0,0,54,0,0,0,0,0,61,0,0,0,0,0,0,0,1,41,0,0,0,0,20,0,50,47,0,0,13,0,0,0,0,0,0,0,0,62,46,0,0,67,3,0,0,38,0,0,27,0,0,0,0,0,0,0,0,0,0,0,0,0,23,0,0,0,12,71,0,0,0,0,0,0,0,0,0|
0,0,0,0,0,0,0,0,0,0,0,0,0,0,0,0,27,0,0,0,0,60,0,23,0,0,0,0,45,0,0,0,0,0,0,0,0,76,0,0,0,0,22,0,0,21,0,0,0,0,80,0,0,0,0,0,0,37,53,0,0,0,0,0,0,0,62,0,0,0,29,0,0,0,17,0,0,0,15,36,0|
0,0,56,0,0,0,0,0,0,0,0,0,13,0,6,0,0,0,0,0,0,0,0,0,0,17,40,0,0,76,0,0,0,0,0,0,0,0,23,0,0,0,0,0,11,0,0,0,0,7,15,0,0,0,0,0,0,0,0,0,0,0,0,0,0,0,0,0,0,0,35,0,0,0,0,0,0,0,0,0,0|
0,73,0,0,0,70,0,0,0,57,0,0,0,0,0,0,0,0,0,0,0,0,0,0,53,0,0,0,0,64,0,0,0,65,0,0,0,28,39,0,0,59,0,67,0,0,0,61,13,0,0,0,0,0,0,0,0,0,0,0,0,0,16,54,0,0,44,0,0,49,15,38,24,14,0,0,0,0,0,0,0|
17,0,14,72,0,0,0,32,0,0,11,0,0,0,0,24,0,0,0,0,0,0,0,0,35,0,13,46,0,0,0,29,0,0,25,0,0,1,0,0,0,0,0,57,0,34,73,52,0,8,0,16,33,0,0,0,0,0,0,0,0,39,0,0,41,0,0,0,0,0,0,70,0,0,45,0,0,0,0,0,0|
0,0,0,28,5,0,0,0,0,0,0,0,0,0,0,0,0,77,0,0,0,0,0,0,0,0,63,0,40,0,0,58,0,0,12,0,0,0,0,0,0,6,0,19,0,0,79,0,0,0,0,0,0,0,0,69,0,0,0,0,0,60,0,0,0,0,0,0,0,0,0,0,0,0,0,0,0,0,64,0,45|
0,0,0,0,9,0,0,0,0,0,0,36,71,0,0,0,43,0,0,0,0,0,0,0,0,0,0,0,0,0,0,0,0,0,0,0,0,0,0,0,51,0,0,0,0,52,65,0,0,0,0,0,0,0,0,0,0,8,0,35,0,0,0,0,0,47,17,0,0,0,0,0,0,0,0,0,0,0,0,0,0|
0,0,0,0,0,0,0,0,0,0,0,0,0,0,0,0,0,0,0,28,0,0,0,0,0,64,44,24,0,0,0,0,0,0,0,0,0,0,81,0,0,0,0,0,0,0,0,0,0,0,0,46,0,0,0,0,0,5,0,0,0,0,0,0,0,0,0,0,0,0,0,0,0,0,0,0,0,35,54,0,67|
76,0,0,0,0,0,0,0,0,0,0,0,0,40,0,57,0,0,0,0,0,66,0,0,0,0,0,26,0,0,0,67,0,15,0,0,0,0,0,0,0,0,0,78,0,0,0,11,0,0,0,0,0,4,0,0,0,0,0,0,0,16,0,69,5,0,0,0,0,0,0,74,0,68,0,0,0,0,0,0,0|
0,0,0,0,37,0,59,0,0,0,0,0,0,0,0,34,0,0,0,0,0,0,0,0,0,1,0,0,0,0,72,0,0,46,61,0,0,0,0,0,0,0,0,44,0,80,0,0,0,26,0,0,3,0,51,0,0,0,73,31,0,0,77,0,0,36,4,58,0,0,0,0,0,0,0,71,0,56,78,0,21|
0,0,25,0,69,0,75,0,0,0,12,0,0,0,32,0,0,66,0,36,0,0,0,0,0,0,0,0,0,57,0,0,0,0,0,0,58,8,0,0,0,0,0,0,0,0,7,0,0,0,0,0,0,0,0,17,0,0,0,37,0,0,0,0,0,0,68,0,0,0,0,0,0,0,0,38,0,0,0,0,0|
0,57,24,0,21,0,0,0,0,0,0,17,63,23,0,0,0,0,0,0,0,30,20,14,0,0,0,59,0,0,0,0,0,0,0,0,0,15,0,0,0,0,0,0,0,0,0,0,0,0,0,0,0,0,0,0,0,0,0,0,0,0,0,0,0,0,0,65,0,0,0,0,81,0,80,5,25,0,0,0,0|
0,0,0,1,0,0,0,0,0,0,67,26,0,6,0,0,0,0,0,0,0,0,0,0,0,0,73,0,0,0,39,0,44,0,0,0,0,0,9,0,69,0,0,0,0,0,0,5,0,0,0,0,0,0,15,0,0,7,10,50,0,79,0,0,0,0,0,0,0,0,34,0,0,0,0,0,0,0,0,40,0|
53,0,0,0,0,0,0,0,0,0,0,0,0,0,0,0,0,0,32,0,0,0,0,0,0,0,21,0,0,0,0,0,0,0,0,9,0,0,0,0,0,0,16,0,0,0,0,0,0,0,33,0,0,0,0,27,0,0,0,0,76,0,80,0,0,0,0,8,0,0,0,0,0,0,0,0,0,0,46,0,0|
0,15,0,0,0,0,0,0,0,0,0,0,31,0,0,0,0,0,0,0,7,0,81,0,0,0,36,64,0,0,0,21,0,37,0,0,0,49,0,0,65,0,78,80,0,0,40,0,61,0,77,14,13,8,0,0,0,0,0,0,0,0,0,0,0,0,34,0,0,0,0,0,0,0,0,0,57,0,0,0,55|
38,0,3,0,0,0,0,0,0,0,0,0,0,0,0,26,0,0,0,0,75,43,0,0,0,8,0,0,4,18,0,78,0,0,0,0,0,0,1,0,0,0,0,0,0,0,0,25,0,0,0,0,0,28,0,0,72,48,0,44,47,0,0,0,69,0,0,63,0,0,31,0,0,0,13,0,0,0,0,0,74|
0,0,0,10,0,0,0,0,0,0,52,0,0,0,0,0,0,0,50,0,0,0,0,0,0,22,0,0,0,0,0,0,0,0,0,32,0,0,72,0,0,41,0,25,0,0,0,4,57,0,0,56,12,33,0,0,0,0,0,49,0,0,0,0,0,0,0,0,0,0,0,0,0,0,0,0,0,0,0,0,0|
0,0,0,0,0,0,0,0,0,0,1,0,0,0,39,0,0,0,0,0,0,0,0,0,0,0,0,0,0,43,0,36,0,0,0,0,55,13,0,0,0,31,0,47,0,44,0,0,0,0,0,45,0,0,0,0,0,6,0,8,64,0,15,0,77,0,28,4,0,29,0,0,21,0,0,0,0,0,0,3,0|
0,0,0,0,0,0,0,0,73,0,0,72,0,0,8,0,0,0,0,0,0,0,0,0,0,0,0,0,0,0,0,0,1,0,0,0,0,0,0,11,33,0,53,0,0,0,0,0,0,5,0,0,0,0,0,0,0,0,0,0,71,0,0,45,0,46,0,0,0,0,0,0,0,0,0,0,22,0,31,0,0|
0,28,0,0,0,0,0,53,0,0,45,0,21,0,0,44,11,0,0,0,0,57,0,0,0,51,0,0,69,22,9,0,40,0,0,0,4,36,0,0,0,46,0,0,0,68,0,0,0,35,0,0,0,0,0,0,0,0,3,0,0,0,0,0,0,80,0,0,20,0,33,0,0,0,0,0,61,0,0,67,0|
0,0,0,0,0,0,0,0,0,0,0,0,0,59,0,0,0,0,67,0,0,0,0,0,0,0,0,0,54,0,0,0,0,0,0,0,0,79,0,0,0,0,0,0,0,0,0,0,1,0,0,0,73,0,0,0,36,0,0,40,12,0,14,0,49,0,8,70,0,48,0,0,0,0,26,0,0,0,0,58,0|
0,0,0,7,0,0,0,63,0,0,49,0,0,0,0,10,0,0,0,0,0,0,0,0,0,0,54,0,24,0,0,0,0,0,62,0,0,0,0,0,0,0,0,0,20,0,0,0,66,0,42,0,0,53,0,0,0,0,0,0,33,46,0,0,0,0,0,0,21,81,0,0,0,0,0,0,4,0,0,2,60|
0,0,0,0,18,12,0,0,0,81,0,0,0,0,0,0,0,0,0,0,0,0,14,61,0,0,17,0,0,0,0,0,0,0,0,0,0,0,0,69,0,0,0,0,0,0,16,0,0,0,0,20,0,0,54,0,0,0,19,0,0,0,0,0,0,0,72,0,0,0,0,11,0,0,0,0,0,0,0,48,0|
0,0,0,0,0,0,0,0,0,0,16,0,76,0,0,0,0,0,0,23,0,0,0,0,0,0,0,0,36,0,41,12,0,0,0,14,0,0,0,0,21,0,0,65,8,0,52,0,42,0,0,0,0,0,0,0,0,0,0,0,0,67,4,0,0,0,0,2,75,0,0,25,0,0,0,0,0,0,0,0,0|
0,0,0,0,0,0,0,0,0,0,0,0,0,0,0,2,0,0,0,0,0,0,0,0,0,0,0,39,0,0,0,73,0,0,0,0,0,0,0,0,0,0,0,0,0,0,0,0,0,0,0,0,0,0,0,0,0,0,63,0,0,54,0,0,0,0,0,3,0,20,0,0,0,0,24,0,0,0,0,0,0|
0,0,0,0,0,0,0,0,0,0,32,0,0,0,0,0,0,24,0,0,0,0,7,0,0,0,0,18,0,0,0,0,0,0,0,0,0,0,0,0,0,0,0,76,0,0,0,0,0,0,0,0,0,36,0,0,1,0,0,0,0,0,0,0,0,0,59,0,0,0,14,0,0,0,0,0,0,0,0,0,0|
0,0,0,47,0,0,38,0,1,0,0,0,0,0,0,46,0,0,0,0,0,0,0,0,0,0,0,0,78,21,0,64,72,0,0,0,48,0,0,42,0,0,0,0,73,0,0,0,0,0,0,0,0,0,0,0,0,0,0,0,0,0,0,0,0,65,0,0,0,8,0,0,0,0,0,0,0,0,0,11,0|
45,25,0,0,0,0,16,0,0,0,0,58,0,0,0,0,0,0,0,0,0,0,0,0,0,0,0,0,59,0,0,0,0,0,0,5,49,0,0,0,0,0,0,0,39,0,0,0,31,0,0,0,0,0,0,0,0,0,0,0,46,0,0,0,10,35,0,43,64,6,0,0,0,81,0,37,0,0,0,0,0|
0,0,0,0,0,0,0,0,0,0,0,0,0,0,0,54,0,0,11,0,0,0,0,0,0,0,0,40,0,0,0,66,0,71,0,49,0,0,0,0,0,0,0,31,0,16,0,63,0,0,0,0,0,18,26,0,0,0,0,0,75,0,0,0,0,0,0,76,0,23,0,0,0,0,0,0,0,0,0,0,0|
0,0,75,0,0,0,0,0,0,0,0,0,0,14,0,0,0,0,0,0,0,0,0,0,0,0,0,0,74,0,0,0,0,0,48,60,81,0,0,0,18,0,0,0,0,0,0,22,0,0,0,0,0,0,0,0,0,0,0,0,0,0,0,0,21,0,0,13,0,0,0,0,0,0,0,0,0,40,0,0,0|
0,0,0,0,0,0,0,19,0,0,47,68,0,0,65,0,0,0,0,0,0,0,0,0,0,0,69,0,35,0,63,0,24,0,0,0,11,20,0,0,0,0,0,0,0,0,0,0,0,0,60,0,0,0,0,0,0,0,0,66,0,25,0,0,0,77,0,0,22,0,0,0,0,0,0,0,0,0,8,0,0|
77,0,18,0,0,0,0,0,0,0,41,0,0,0,0,0,0,0,0,13,0,26,0,0,0,0,0,31,0,17,0,0,65,0,0,0,67,0,0,0,0,0,43,0,0,0,35,0,0,0,0,0,0,0,16,0,0,0,8,0,0,0,0,0,36,15,0,40,0,56,0,46,0,0,0,0,0,0,49,0,0|];